c   #vars: 71   #clauses: 322   #literals: 894
c 
p cnf 71 322
16 60 61 -62 0
16 -60 62 63 0
-2 -3 0
21 22 45 46 0
-4 -5 0
-6 -7 0
-8 -9 0
-10 -11 0
-12 -13 0
2 3 36 37 0
21 22 36 37 0
-14 -15 0
17 27 28 -33 0
14 15 33 -63 0
1 -29 47 48 0
-19 -20 0
23 24 56 57 0
16 -50 62 63 0
-21 -22 0
-23 -24 0
-25 -26 0
-27 -28 0
-29 -30 0
-31 -32 0
-34 -35 0
-36 -37 0
-38 -39 0
-40 -41 0
25 26 56 57 0
19 20 31 32 0
8 9 70 71 0
-42 -43 0
25 26 -27 49 0
-45 -46 0
-47 -48 0
-34 45 46 67 0
-50 -51 0
-52 -53 0
14 15 -27 66 0
-54 -55 0
4 5 38 39 0
23 24 38 39 0
2 3 64 65 0
-56 -57 0
-58 -59 0
-60 -61 0
10 11 -14 44 0
2 3 52 53 0
-62 -63 0
-64 -65 0
8 9 68 69 0
-68 -69 0
-70 -71 0
10 11 36 37 0
16 -50 60 61 0
-1 -30 0
-6 10 11 44 0
16 50 51 -62 0
-1 -48 0
16 50 51 -60 0
-1 -59 0
11 -56 -57 0
-2 -25 0
-3 -26 0
-2 -29 0
-3 -30 0
17 -31 33 -63 0
-2 -34 0
-3 -35 0
4 5 60 61 0
-2 -36 0
-3 -37 0
-2 -52 0
-3 -53 0
4 5 58 59 0
-2 -64 0
-3 -65 0
21 22 50 51 0
-4 -38 0
-5 -39 0
45 46 54 55 0
-4 -40 0
-5 -41 0
-4 -52 0
-5 -53 0
29 30 60 61 0
-4 -58 0
-5 -59 0
-4 -60 0
-5 -61 0
-4 -68 0
-5 -69 0
18 36 37 -56 0
-6 -27 0
-7 -28 0
-6 25 26 49 0
-7 -44 0
38 39 70 71 0
-6 -47 0
-7 -48 0
-27 45 46 67 0
-7 -49 0
23 24 42 43 0
-8 -31 0
-9 -32 0
-8 -40 0
-9 -41 0
-8 -56 0
-9 -57 0
2 3 29 30 0
-8 -62 0
-9 -63 0
8 9 31 32 0
-8 -68 0
-9 -69 0
14 15 47 48 0
-8 -70 0
-9 -71 0
19 20 34 35 0
-10 14 15 44 0
12 13 50 51 0
-10 -36 0
-11 -37 0
8 9 40 41 0
-10 -42 0
-11 -43 0
17 -27 33 -63 0
6 7 -27 49 0
-11 -44 0
-10 -56 0
-11 -57 0
-12 -31 0
-13 -32 0
18 -36 56 57 0
-12 -38 0
-13 -39 0
18 -40 56 57 0
-12 -47 0
-13 -48 0
34 35 54 55 0
-12 -50 0
-13 -51 0
14 15 70 71 0
-12 -68 0
-13 -69 0
42 43 64 65 0
-14 27 28 66 0
47 48 64 65 0
-14 19 20 66 0
23 24 52 53 0
-14 -33 0
14 15 62 63 0
31 32 56 57 0
6 7 -25 49 0
-15 -44 0
42 43 68 69 0
-14 -47 0
-15 -48 0
2 3 25 26 0
-14 -62 0
-15 -63 0
-25 27 28 49 0
-15 -66 0
-14 -70 0
-15 -71 0
21 22 64 65 0
17 27 28 -31 0
-16 -51 0
23 24 70 71 0
-16 -61 0
29 30 54 55 0
-16 -63 0
-15 17 -31 33 0
14 15 -17 33 0
-17 -28 0
-17 33 62 63 0
-17 -32 0
19 20 50 51 0
-15 33 62 63 0
1 -47 58 59 0
-18 -37 0
1 -29 58 59 0
-18 -41 0
4 5 52 53 0
25 26 68 69 0
18 40 41 -56 0
18 36 37 -40 0
1 29 30 -58 0
-18 -57 0
21 22 42 43 0
-19 -31 0
-20 -32 0
-19 -34 0
-20 -35 0
38 39 68 69 0
45 46 64 65 0
-19 -50 0
-20 -51 0
38 39 60 61 0
18 -36 40 41 0
6 7 -10 44 0
-20 -66 0
-19 -70 0
-20 -71 0
27 28 -34 67 0
45 46 70 71 0
27 28 -45 67 0
-21 -36 0
-22 -37 0
-21 -42 0
-22 -43 0
-21 -45 0
-22 -46 0
6 7 47 48 0
-21 -50 0
-22 -51 0
1 29 30 -47 0
23 24 60 61 0
-21 -64 0
-22 -65 0
12 13 31 32 0
-23 -38 0
-24 -39 0
-15 17 -27 33 0
-23 -42 0
-24 -43 0
40 41 58 59 0
-23 -52 0
-24 -53 0
-23 -56 0
-24 -57 0
17 -27 31 32 0
-23 -60 0
-24 -61 0
31 32 70 71 0
-23 -70 0
-24 -71 0
8 9 56 57 0
-26 -49 0
6 7 27 28 0
-25 -56 0
-26 -57 0
-25 -58 0
-26 -59 0
-25 -68 0
-26 -69 0
-6 27 28 49 0
-10 -11 57 0
-28 -49 0
19 20 70 71 0
6 7 -14 44 0
-28 -66 0
-28 -67 0
14 15 -19 66 0
34 35 -45 67 0
-29 -54 0
-30 -55 0
36 37 62 63 0
-29 -60 0
-30 -61 0
10 11 42 43 0
-31 -56 0
-32 -57 0
42 43 54 55 0
-31 -70 0
-32 -71 0
-33 -62 0
19 20 -27 66 0
-6 14 15 44 0
40 41 64 65 0
1 47 48 -58 0
4 5 40 41 0
12 13 38 39 0
-34 -54 0
-35 -55 0
12 13 68 69 0
-35 -67 0
-19 27 28 66 0
-27 34 35 67 0
36 37 56 57 0
-36 -56 0
-37 -57 0
17 31 32 -33 0
-36 -58 0
-37 -59 0
2 3 34 35 0
-36 -62 0
-37 -63 0
10 11 56 57 0
-38 -60 0
-39 -61 0
8 9 62 63 0
-38 -68 0
-39 -69 0
-38 -70 0
-39 -71 0
-40 -58 0
-41 -59 0
36 37 58 59 0
-40 -64 0
-41 -65 0
-42 -54 0
-43 -55 0
47 48 52 53 0
-42 -64 0
-43 -65 0
12 13 47 48 0
-42 -68 0
-43 -69 0
-45 -54 0
-46 -55 0
-45 -64 0
-46 -65 0
-46 -67 0
-45 -70 0
-46 -71 0
25 26 58 59 0
-47 -52 0
-48 -53 0
4 5 68 69 0
-47 -64 0
-48 -65 0
